&control
   prefix = 'Si'
   calculation = 'bands'
   restart_mode = 'from_scratch'
   wf_collect = .false.
   tstress = .false.
   tprnfor = .false.
   outdir = './'
   wfcdir = './'
   pseudo_dir = './'
/
&system
   ibrav = 0
   a = 5.43
   nat = 2
   ntyp = 1
   ecutwfc = 25.0
   nbnd = 5
/
&electrons
   electron_maxstep = 1000
   conv_thr = 1.0d-12
   mixing_mode = 'plain'
   mixing_beta = 0.7
   mixing_ndim = 8
   diagonalization = 'david'
   diago_david_ndim = 8
   diago_full_acc = .true.
/
CELL_PARAMETERS alat
       0.000000000   0.500000000   0.500000000
       0.500000000   0.000000000   0.500000000
       0.500000000   0.500000000   0.000000000
ATOMIC_SPECIES
  Si  28.086  Si.UPF
ATOMIC_POSITIONS crystal
  Si  -0.125000000  -0.125000000  -0.125000000
  Si   0.125000000   0.125000000   0.125000000
K_POINTS crystal
   20
  0.000000000  0.000000000  0.001000000   1.0
  0.000000000  0.000000000  0.251000000   1.0
  0.000000000  0.000000000  0.501000000   1.0
  0.000000000  0.000000000  0.751000000   1.0
  0.000000000  0.250000000  0.251000000   3.0
  0.000000000  0.250000000  0.501000000   3.0
  0.000000000  0.250000000  0.751000000   3.0
  0.000000000  0.500000000  0.501000000   3.0
  0.250000000  0.250000000  0.251000000   3.0
  0.250000000  0.500000000  0.251000000   6.0
  0.250000000  0.500000000  0.501000000   6.0
  0.250000000  0.500000000  0.751000000   6.0
  0.500000000  0.000000000  0.251000000   3.0
  0.500000000  0.000000000  0.751000000   3.0
  0.500000000  0.500000000  0.501000000   3.0
  0.500000000  0.750000000  0.501000000   6.0
  0.750000000  0.000000000  0.251000000   3.0
  0.750000000  0.000000000  0.501000000   3.0
  0.750000000  0.000000000  0.751000000   3.0
  0.750000000  0.750000000  0.751000000   3.0
